study/farce-uclibc/output/TypeErrors/DimacsConstraints/constraint_557.dimacs
c 3 __LINUXTHREADS_OLD__
c 5 __UCLIBC_HAS_CRYPT__
c 1 __UCLIBC_HAS_THREADS_NATIVE__
c 2 __UCLIBC_HAS_XLOCALE__
c 6 __UCLIBC_HAS_LOCALE__
c 8 __LINUXTHREADS_NEW__
c 4 __UCLIBC_HAS_THREADS__
c 7 __UCLIBC_HAS_SHA256_CRYPT_IMPL__
p cnf 8 1
1 -3 -2 -4 6 -7 -5 8 1
